FEATURES = {usAndCanadaCalling,usAndCanadaMessaging,internationalCalling,internationalMessaging,phoneNumbers,portPhoneNumbersFromOtherCarriers,sharedPhoneNumbers,snippets,internalThreads,sharedContacts,contactNotes,businessHours,voicemailToText,callRecording,autoReplies,scheduledMessages,basicAutoAtendant,advancedAutoAtendant,userGroups,callerID,groupCalling,callMonitoring,callWhispering,callTransfers,roundRobin,emailIntegration,slackIntegration,zapierIntegration,smsViaZapier,googleContactsIntegration,hubSpotCRMIntegration,webhooksIntegration,salesforceIntegration,gongIntegration,userRoles,userManagement,supervisorRoles,analytics,reporting,auditLog,samlSSO,emailSupport,prioritySupport,dedicatedAccountManager};
USAGE_LIMITS = {phoneNumbersLimit,sharedPhoneNumbersLimit,smsViaZapierAddonLimit};
PLANS = {STANDARD,PREMIUM,ENTERPRISE};
ADDONS = {aditionalPhoneNumbers,internationalCallingAndMessaging,smsViaZapierAddon};

plans_prices = [13.0,25.0,0.0];
addons_prices = [5.0,0.0,0.01];

plans_features = array2d(PLANS, FEATURES, [
    % STANDARD
    1,1,0,0,1,1,1,1,1,1,1,1,1,1,1,1,1,1,0,1,0,0,0,0,0,1,1,1,1,1,0,1,0,0,0,0,0,1,0,0,
    % PREMIUM
    1,1,1,1,1,1,1,1,1,1,1,1,1,1,1,1,1,1,1,1,1,1,1,1,1,1,1,1,1,1,1,1,1,1,1,1,1,1,1,1,
    % ENTERPRISE
    1,1,1,1,1,1,1,1,1,1,1,1,1,1,1,1,1,1,1,1,1,1,1,1,1,1,1,1,1,1,1,1,1,1,1,1,1,1,1,1
]);
plans_usage_limits = array2d(PLANS, USAGE_LIMITS, [
    % STANDARD
    1,10,0,
    % PREMIUM
    1,inf,0,
    % ENTERPRISE
    1,inf,0
]);

linked_features = array2d(USAGE_LIMITS, FEATURES, [
    % phoneNumbersLimit
    0,0,0,0,1,0,0,0,0,0,0,0,0,0,0,0,0,0,0,0,0,0,0,0,0,0,0,0,0,0,0,0,0,0,0,0,0,0,0,0,
    % sharedPhoneNumbersLimit
    0,0,0,0,0,0,1,0,0,0,0,0,0,0,0,0,0,0,0,0,0,0,0,0,0,0,0,0,0,0,0,0,0,0,0,0,0,0,0,0,
    % smsViaZapierAddonLimit
    0,0,0,0,0,0,0,0,0,0,0,0,0,0,0,0,0,0,0,0,0,0,0,0,0,1,0,0,0,0,0,0,0,0,0,0,0,0,0,0
]);

addons_features = array2d(ADDONS, FEATURES, [
    % aditionalPhoneNumbers
    0,0,0,0,0,0,0,0,0,0,0,0,0,0,0,0,0,0,0,0,0,0,0,0,0,0,0,0,0,0,0,0,0,0,0,0,0,0,0,0,
    % internationalCallingAndMessaging
    0,0,1,1,0,0,0,0,0,0,0,0,0,0,0,0,0,0,0,0,0,0,0,0,0,0,0,0,0,0,0,0,0,0,0,0,0,0,0,0,
    % smsViaZapierAddon
    0,0,0,0,0,0,0,0,0,0,0,0,0,0,0,0,0,0,0,0,0,0,0,0,0,1,0,0,0,0,0,0,0,0,0,0,0,0,0,0
]);
addons_usage_limits = array2d(ADDONS, USAGE_LIMITS, [
    % aditionalPhoneNumbers
    1,0,0,
    % internationalCallingAndMessaging
    0,0,0,
    % smsViaZapierAddon
    0,0,0
]);
addons_usage_limits_extensions = array2d(ADDONS, USAGE_LIMITS, [
    % aditionalPhoneNumbers
    1,0,0,
    % internationalCallingAndMessaging
    0,0,0,
    % smsViaZapierAddon
    0,0,1
]);
addons_available_for = array2d(ADDONS, PLANS, [
    % aditionalPhoneNumbers
    1,1,1,
    % internationalCallingAndMessaging
    1,1,1,
    % smsViaZapierAddon
    1,1,1
]);

addons_depends_on = array2d(ADDONS, ADDONS, [
    % aditionalPhoneNumbers
    0,0,0,
    % internationalCallingAndMessaging
    0,0,0,
    % smsViaZapierAddon
    0,0,0
]);